NAME : 10_3_3_3_(10).dat
COMMENT : Henke, Speranza, Wäscher, 2015
TYPE : MCVRP
DIMENSION : 11
EDGE_WEIGHT_TYPE : DISTANCE_MATRIX
CAPACITY : 1000
VEHICLES : 2
PRODUCT TYPES : 3
COMPARTMENTS : 3
NODE_COORD_SECTION
1 50 50
2 16.07 73.91
3 68.15 77.16
4 2.82 9.7
5 66.59 7.6
6 84.94 90.86
7 38.14 17.65
8 74.14 24.98
9 82.26 47.95
10 39.92 23.77
11 3.82 81.33
DEMAND_SECTION
1 0 0 0
2 2 6 36
3 79 8 35
4 105 86 9
5 54 26 26
6 87 32 53
7 97 6 24
8 55 55 36
9 79 95 8
10 79 78 39
11 35 10 3
DEPOT_SECTION
1
EOF